RT is False
Default write of storage_offers_DA.csv just to have a file (but constraint should be inactive)
Reading model...
...model read.
creating competitive generators file...
...competitive generators recorded.
Loading data...
.. day-ahead data with real-time VRE data read.
Compiling instance...
...instance created.
Creating Offer Mitigation (model will solve as dispatch if TRUE)...
NOTE: storage offers will not be mitigated
...storage offer mitigation file created
Converting model to MPEC...
...converted
NOTE: initial MIP solve with only storage competitive to get feasible solution
Solving...

Welcome to IBM(R) ILOG(R) CPLEX(R) Interactive Optimizer 12.8.0.0
  with Simplex, Mixed Integer & Barrier Optimizers
5725-A06 5725-A29 5724-Y48 5724-Y49 5724-Y54 5724-Y55 5655-Y21
Copyright IBM Corp. 1988, 2017.  All Rights Reserved.

Type 'help' for a list of available commands.
Type 'help' followed by a command name for more
information on commands.

CPLEX> Logfile 'cplex.log' closed.
Logfile 'C:\Users\llavi\Desktop\test919\logs\tmpkqprtazp.cplex.log' open.
CPLEX> New value for parallel optimization mode: -1
CPLEX> New value for mixed integer optimality gap tolerance: 0.01
CPLEX> New value for integrality tolerance: 1e-09
CPLEX> New value for feasibility tolerance: 0.01
CPLEX> New value for deterministic time limit in ticks: 75000
CPLEX> Problem 'C:\Users\llavi\Desktop\test919\logs\tmpnttqg8im.pyomo.lp' read.
Read time = 0.44 sec. (13.50 ticks)
CPLEX> Problem name         : C:\Users\llavi\Desktop\test919\logs\tmpnttqg8im.pyomo.lp
Objective sense      : Maximize
Variables            :   54021  [Nneg: 1,  Box: 22008,  Free: 4464,
                                 Binary: 27548]
Objective nonzeros   :    8974
Linear constraints   :  123829  [Less: 41554,  Greater: 59512,  Equal: 22763]
  Nonzeros           :  300587
  RHS nonzeros       :   67895

Variables            : Min LB: -5000.000        Max UB: 1000000.       
Objective nonzeros   : Min   : 0.008333333      Max   : 753.1500       
Linear constraints   :
  Nonzeros           : Min   : 0.001000000      Max   : 1000000.       
  RHS nonzeros       : Min   : 0.008333333      Max   : 1000000.       
CPLEX> CPXPARAM_Simplex_Tolerances_Feasibility          0.01
CPXPARAM_Parallel                                -1
CPXPARAM_DetTimeLimit                            75000
CPXPARAM_MIP_Tolerances_MIPGap                   0.01
CPXPARAM_MIP_Tolerances_Integrality              1.0000000000000001e-09
Tried aggregator 3 times.
MIP Presolve eliminated 89283 rows and 19172 columns.
MIP Presolve added 3395 rows and 0 columns.
MIP Presolve modified 23871 coefficients.
Aggregator did 13056 substitutions.
Reduced MIP has 24885 rows, 21234 columns, and 71053 nonzeros.
Reduced MIP has 8402 binaries, 0 generals, 0 SOSs, and 0 indicators.
Presolve time = 0.38 sec. (167.20 ticks)
Probing fixed 384 vars, tightened 2806 bounds.
Probing time = 3.86 sec. (893.25 ticks)
Tried aggregator 2 times.
MIP Presolve eliminated 868 rows and 770 columns.
MIP Presolve modified 2184 coefficients.
Aggregator did 37 substitutions.
Reduced MIP has 23980 rows, 20427 columns, and 68426 nonzeros.
Reduced MIP has 8018 binaries, 0 generals, 0 SOSs, and 0 indicators.
Presolve time = 0.17 sec. (56.03 ticks)
Probing time = 0.06 sec. (15.24 ticks)
Clique table members: 6513.
MIP emphasis: balance optimality and feasibility.
MIP search method: dynamic search.
Parallel mode: opportunistic, using up to 4 threads.
Root relaxation solution time = 0.70 sec. (482.50 ticks)

        Nodes                                         Cuts/
   Node  Left     Objective  IInf  Best Integer    Best Bound    ItCnt     Gap

      0     0     3226.4590   732                   3226.4590     3266         
      0     0     3220.8691   659                   Cuts: 574     3575         
      0     0     3220.8691   555                   Cuts: 278     3769         
      0     0     3220.8691   496                   Cuts: 147     3845         
      0     0     3207.7249   467                    Cuts: 92     3891         
      0     0     3207.7249   432                    Cuts: 80     3940         
      0     0     3207.7249   420                    Cuts: 59     3975         
      0     0     3207.7249   408                    Cuts: 66     4019         
      0     0     3207.7249   395                    Cuts: 69     4060         
      0     0     3207.7249   391                    Cuts: 39     4079         
      0     0     3207.7249    18                     Cuts: 3     4079         
      0     2     3207.7249    14                   3207.7249     4079         
Elapsed time = 20.14 sec. (5517.77 ticks, tree = 0.03 MB, solutions = 0)
*    20+    1                         2992.9848     3207.7249             7.17%
     59    24     3120.2359    14     2992.9848     3207.7249     6018    7.17%
    134    16     3115.8064     7     2992.9848     3207.7249     6138    7.17%
    238    27     3115.8064     6     2992.9848     3207.7249     6343    7.17%
    330    26        cutoff           2992.9848     3207.7249     6367    7.17%
    389    31        cutoff           2996.2342     3207.7249     6525    7.06%
    448    43     3094.2062     2     2996.2342     3203.4113     6659    6.91%
    501    42        cutoff           2997.2984     3203.4113     6782    6.88%
    524    54     3094.2062     1     2997.2984     3203.4113     7765    6.88%
    549    53     3094.2062     2     2997.2984     3203.4113     7271    6.88%
    634    72     3079.5363     3     2997.2984     3203.4113     7861    6.88%
Elapsed time = 27.00 sec. (8685.10 ticks, tree = 0.29 MB, solutions = 3)
    698    88     3089.8926     2     2997.2984     3203.4113     7961    6.88%
    752    94     3094.2062     2     2997.2984     3203.4113     7974    6.88%
    802   109     3094.2062     2     2997.2984     3203.4113     8057    6.88%
    862   127     3066.6584     2     2997.2984     3203.4113     8167    6.88%
    921   140        cutoff           2997.2984     3203.4113     8234    6.88%
    968   148        cutoff           2997.2984     3203.4113     8265    6.88%
   1034   172        cutoff           2997.2984     3201.2803     8393    6.81%
   1084   180     3198.9818     3     2997.2984     3201.2803     8408    6.81%
   1122   188        cutoff           2997.2984     3201.2803     8456    6.81%
   1165   193     3031.8609     1     2997.2984     3201.2803     8496    6.81%
Elapsed time = 40.72 sec. (18548.93 ticks, tree = 0.78 MB, solutions = 3)
   1201   201     3131.8260     2     2997.2984     3201.2803     8524    6.81%
   1232   205        cutoff           2997.2984     3201.2803     8554    6.81%
   1258   207        cutoff           2997.2984     3201.2803     8570    6.81%
*  1298   204      integral     0     3084.9228     3198.9818     8608    3.70%
   1298   218     3114.6345     3     3084.9228     3198.9818     8621    3.70%
   1355   160        cutoff           3084.9228     3198.9818     8943    3.70%
   1426   147     3198.9818     2     3084.9228     3198.9818     8679    3.70%
   1488   159     3198.9818     2     3084.9228     3198.9818     9040    3.70%
   1538   186     3187.8610     2     3084.9228     3198.9818     9144    3.70%
   1589   199        cutoff           3084.9228     3198.9818     9197    3.70%
   1641   214     3131.8260     2     3084.9228     3198.9818     9248    3.70%
Elapsed time = 53.64 sec. (28174.67 ticks, tree = 1.26 MB, solutions = 4)
   1685   228     3164.3787     2     3084.9228     3198.9818     9354    3.70%
   1722   222     3131.8260     2     3084.9228     3198.9818     9289    3.70%
   1770   244     3184.3119     2     3084.9228     3198.9818     9476    3.70%
   1838   245        cutoff           3084.9228     3198.9818     9468    3.70%
   1885   288     3198.9818     2     3089.2364     3198.9818     9625    3.55%
   1972   343     3101.8100     3     3089.2364     3198.9818     9804    3.55%
   2011   334        cutoff           3089.2364     3198.9818     9849    3.55%
   2044   331     3184.3119     2     3089.2364     3198.9818     9820    3.55%
   2081   382     3179.9983     2     3089.2364     3198.9818     9988    3.55%
   2129   398     3099.9204     3     3089.2364     3198.9818    10049    3.55%
Elapsed time = 65.95 sec. (37793.68 ticks, tree = 2.55 MB, solutions = 5)
   2161   409     3184.3119     2     3089.2364     3198.9818    10092    3.55%
   2194   422     3099.9204     4     3089.2364     3198.9818    10178    3.55%
   2222   428     3184.3119     2     3089.2364     3198.9818    10187    3.55%
   2252   447     3184.3119     2     3089.2364     3198.9818    10314    3.55%
   2282   454     3179.9983     1     3089.2364     3198.9818    10464    3.55%
   2309   465     3179.9983     2     3089.2364     3198.9818    10630    3.55%
   2333   482     3179.9983     2     3089.2364     3198.9818    10728    3.55%
   2354   484     3184.3119     2     3089.2364     3198.9818    10732    3.55%
   2377   490     3184.3119     2     3089.2364     3198.9818    10759    3.55%
   2399   496     3184.3119     1     3089.2364     3198.9818    10789    3.55%
Elapsed time = 77.73 sec. (47690.73 ticks, tree = 3.37 MB, solutions = 5)
   2420   505     3184.3119     2     3089.2364     3198.9818    10813    3.55%
   2441   507     3099.9204     4     3089.2364     3198.9818    10830    3.55%
   2462   516     3099.9204     4     3089.2364     3198.9818    10857    3.55%
   2493   518     3179.9983     2     3089.2364     3198.9818    10871    3.55%
   2519   526     3198.9818     2     3089.2364     3198.9818    10895    3.55%
   2546   529     3179.9983     2     3089.2364     3198.9818    10908    3.55%
   2570   544        cutoff           3089.2364     3198.9818    10970    3.55%
   2592   545     3179.9983     2     3089.2364     3198.9818    10988    3.55%
   2616   544     3184.3119     2     3089.2364     3198.9818    10984    3.55%
   2641   568     3198.9818     2     3089.2364     3198.9818    11068    3.55%
Elapsed time = 90.23 sec. (57930.24 ticks, tree = 3.87 MB, solutions = 5)
   2663   565     3184.3119     2     3089.2364     3198.9818    11061    3.55%
   2683   576     3198.9818     2     3089.2364     3198.9818    11136    3.55%
   2702   576     3179.9983     2     3089.2364     3198.9818    11134    3.55%
   2723   578        cutoff           3089.2364     3198.9818    11146    3.55%
   2737   590     3179.9983     1     3089.2364     3198.9818    11182    3.55%
   2757   594        cutoff           3089.2364     3198.9818    11207    3.55%
   2775   606     3198.9818     2     3089.2364     3198.9818    11253    3.55%
   2794   601     3184.3119     2     3089.2364     3198.9818    11226    3.55%
   2813   612     3179.9983     2     3089.2364     3198.9818    11277    3.55%
   2831   614     3184.3119     2     3089.2364     3198.9818    11281    3.55%
Elapsed time = 102.34 sec. (68125.71 ticks, tree = 4.36 MB, solutions = 5)
   2851   623     3184.3119     2     3089.2364     3198.9818    11313    3.55%
   2863   627     3179.9983     2     3089.2364     3198.9818    11321    3.55%
   2880   625     3184.3119     2     3089.2364     3198.9818    11319    3.55%
   2900   637        cutoff           3089.2364     3198.9818    11341    3.55%
   2913   644     3198.9818     2     3089.2364     3198.9818    11364    3.55%
   2926   643     3179.9983     2     3089.2364     3198.9818    11361    3.55%
   2940   648     3184.3119     2     3089.2364     3198.9818    11371    3.55%

Clique cuts applied:  8
Implied bound cuts applied:  18
Flow cuts applied:  302
Mixed integer rounding cuts applied:  10
Gomory fractional cuts applied:  45

Root node processing (before b&c):
  Real time             =   19.56 sec. (5458.77 ticks)
Parallel b&c, 4 threads:
  Real time             =   91.53 sec. (69964.02 ticks)
  Sync time (average)   =    0.13 sec.
  Wait time (average)   =    0.02 sec.
                          ------------
Total (root+branch&cut) =  111.09 sec. (75422.79 ticks)

Solution pool: 5 solutions saved.

MIP - Deterministic time limit exceeded, integer feasible:  Objective =  3.0892363830e+03
Current MIP best bound =  3.1989817997e+03 (gap = 109.745, 3.55%)
Solution time =  111.14 sec.  Iterations = 11414  Nodes = 2942 (658)
Deterministic time = 75422.95 ticks  (678.62 ticks/sec)

CPLEX> Incumbent solution written to file 'C:\Users\llavi\Desktop\test919\logs\tmpc5hu4a31.cplex.sol'.
CPLEX> NOTE: no warmstart specified for MIP iteration, default behavior is true
NOTE: resolving with all competitive generators using storage-only solution to warmstart
Solving...

Welcome to IBM(R) ILOG(R) CPLEX(R) Interactive Optimizer 12.8.0.0
  with Simplex, Mixed Integer & Barrier Optimizers
5725-A06 5725-A29 5724-Y48 5724-Y49 5724-Y54 5724-Y55 5655-Y21
Copyright IBM Corp. 1988, 2017.  All Rights Reserved.

Type 'help' for a list of available commands.
Type 'help' followed by a command name for more
information on commands.

CPLEX> Logfile 'cplex.log' closed.
Logfile 'C:\Users\llavi\Desktop\test919\logs\tmpdhgrmbdb.cplex.log' open.
CPLEX> New value for parallel optimization mode: -1
CPLEX> New value for mixed integer optimality gap tolerance: 0.01
CPLEX> New value for integrality tolerance: 1e-09
CPLEX> New value for feasibility tolerance: 0.01
CPLEX> New value for deterministic time limit in ticks: 75000
CPLEX> Problem 'C:\Users\llavi\Desktop\test919\logs\tmpwqvsvph8.pyomo.lp' read.
Read time = 0.27 sec. (13.52 ticks)
CPLEX> MIP start file 'C:\Users\llavi\Desktop\test919\logs\tmpkdkeyctt.cplex.mst' read.
CPLEX> Problem name         : C:\Users\llavi\Desktop\test919\logs\tmpwqvsvph8.pyomo.lp
Objective sense      : Maximize
Variables            :   54741  [Nneg: 1,  Box: 22728,  Free: 4464,
                                 Binary: 27548]
Objective nonzeros   :    9694
Linear constraints   :  123829  [Less: 41554,  Greater: 59512,  Equal: 22763]
  Nonzeros           :  300587
  RHS nonzeros       :   67895

Variables            : Min LB: -5000.000        Max UB: 1000000.       
Objective nonzeros   : Min   : 0.008333333      Max   : 753.1500       
Linear constraints   :
  Nonzeros           : Min   : 0.001000000      Max   : 1000000.       
  RHS nonzeros       : Min   : 0.008333333      Max   : 1000000.       
CPLEX> CPXPARAM_Simplex_Tolerances_Feasibility          0.01
CPXPARAM_Parallel                                -1
CPXPARAM_DetTimeLimit                            75000
CPXPARAM_MIP_Tolerances_MIPGap                   0.01
CPXPARAM_MIP_Tolerances_Integrality              1.0000000000000001e-09
Warning:  No solution found from 1 MIP starts.
Retaining values of one MIP start for possible repair.
Tried aggregator 3 times.
MIP Presolve eliminated 89283 rows and 19892 columns.
MIP Presolve added 3395 rows and 0 columns.
MIP Presolve modified 23871 coefficients.
Aggregator did 13056 substitutions.
Reduced MIP has 24885 rows, 21234 columns, and 71053 nonzeros.
Reduced MIP has 8402 binaries, 0 generals, 0 SOSs, and 0 indicators.
Presolve time = 0.28 sec. (167.56 ticks)
Probing fixed 384 vars, tightened 2806 bounds.
Probing time = 3.13 sec. (893.25 ticks)
Tried aggregator 2 times.
MIP Presolve eliminated 868 rows and 770 columns.
MIP Presolve modified 2184 coefficients.
Aggregator did 37 substitutions.
Reduced MIP has 23980 rows, 20427 columns, and 68426 nonzeros.
Reduced MIP has 8018 binaries, 0 generals, 0 SOSs, and 0 indicators.
Presolve time = 0.11 sec. (56.04 ticks)
Probing time = 0.06 sec. (15.24 ticks)
Clique table members: 6513.
MIP emphasis: balance optimality and feasibility.
MIP search method: dynamic search.
Parallel mode: opportunistic, using up to 4 threads.
Root relaxation solution time = 0.63 sec. (486.46 ticks)

        Nodes                                         Cuts/
   Node  Left     Objective  IInf  Best Integer    Best Bound    ItCnt     Gap

      0     0     3226.4590   732                   3226.4590     3279         
      0     0     3220.8691   653                   Cuts: 568     3581         
      0     0     3220.8691   543                   Cuts: 255     3743         
      0     0     3220.8691   489                   Cuts: 139     3824         
      0     0     3207.7249   453                    Cuts: 79     3881         
      0     0     3207.7249   436                    Cuts: 61     3936         
      0     0     3207.7249   411                    Cuts: 50     3981         
      0     0     3207.7249   403                    Cuts: 43     4020         
      0     0     3207.7249    14                     Cuts: 3     4020         
Repair heuristic found nothing.
      0     2     3207.7249    14                   3207.7249     4020         
Elapsed time = 23.31 sec. (8247.44 ticks, tree = 0.59 MB, solutions = 0)
     88    35      555.5990     8                   3207.7249     6141         
    199    76     2997.2984     5                   3207.7249     6303         
    311    78    infeasible                         3207.7249    10352         
*   358    71      integral     0     2996.2342     3207.7249    12724    7.06%
    381    29        cutoff           2997.2984     3207.7249    12924    7.02%
    443    15        cutoff           2997.2984     3207.7249    13662    7.02%
    527    14     3021.3973     3     2997.2984     3099.7742    13729    3.42%
*   529    18      integral     0     3033.7861     3099.7742    13816    2.18%
*   547    17      integral     0     3089.2364     3099.7742    13833    0.34%

Clique cuts applied:  5
Cover cuts applied:  1
Implied bound cuts applied:  9
Flow cuts applied:  286
Mixed integer rounding cuts applied:  17
Gomory fractional cuts applied:  33

Root node processing (before b&c):
  Real time             =   22.97 sec. (8188.63 ticks)
Parallel b&c, 4 threads:
  Real time             =    3.39 sec. (1729.82 ticks)
  Sync time (average)   =    0.16 sec.
  Wait time (average)   =    0.01 sec.
                          ------------
Total (root+branch&cut) =   26.36 sec. (9918.45 ticks)

Solution pool: 4 solutions saved.

MIP - Integer optimal solution:  Objective =  3.0892363830e+03
Solution time =   26.36 sec.  Iterations = 13913  Nodes = 563
Deterministic time = 9918.60 ticks  (376.27 ticks/sec)

CPLEX> Incumbent solution written to file 'C:\Users\llavi\Desktop\test919\logs\tmpdxt6t3o6.cplex.sol'.
CPLEX> Exporting results... 
